rcpsp/heur_output_or_constraints/Log=1/heurj120.txt
encoding rcpsp/j120.sm/j12017_3.sm nv: 6670350 nc: 13478237 enctime: 126.02
encoding rcpsp/j120.sm/j12017_3.sm nv: 1257525 nc: 2537747 enctime: 18.47
c File: j12017_3.smnaiveor1.wcnf
c timeout
c final solution cost: 348
c CPU time: 75.400097
s UNKNOWN

c File: j12017_3.smor1.wcnf
c timeout
c CPU time: 61.913245
s UNKNOWN


rcpsp/heur_output_or_constraints/Log=1/heurj120.txt
encoding rcpsp/j120.sm/j12017_4.sm nv: 7375148 nc: 14952913 enctime: 147.16
encoding rcpsp/j120.sm/j12017_4.sm nv: 1395006 nc: 2824517 enctime: 19.32
c File: j12017_4.smnaiveor1.wcnf
c timeout
c final solution cost: 233
c CPU time: 78.846694
s UNKNOWN

c File: j12017_4.smor1.wcnf
c timeout
c CPU time: 62.297089
s UNKNOWN


rcpsp/heur_output_or_constraints/Log=1/heurj120.txt
encoding rcpsp/j120.sm/j12017_5.sm nv: 6133560 nc: 12449198 enctime: 127.79
encoding rcpsp/j120.sm/j12017_5.sm nv: 1327200 nc: 2690462 enctime: 19.46
c File: j12017_5.smnaiveor1.wcnf
c timeout
c final solution cost: 340
c CPU time: 75.770607
s UNKNOWN

c File: j12017_5.smor1.wcnf
c timeout
c CPU time: 62.075715
s UNKNOWN


rcpsp/heur_output_or_constraints/Log=1/heurj120.txt
encoding rcpsp/j120.sm/j12017_6.sm nv: 5769162 nc: 11708770 enctime: 110.76
encoding rcpsp/j120.sm/j12017_6.sm nv: 1348872 nc: 2734330 enctime: 24.12
c File: j12017_6.smnaiveor1.wcnf
c timeout
c final solution cost: 236
c CPU time: 74.529836
s UNKNOWN

c File: j12017_6.smor1.wcnf
c timeout
c CPU time: 62.004913
s UNKNOWN


rcpsp/heur_output_or_constraints/Log=1/heurj120.txt
encoding rcpsp/j120.sm/j12017_7.sm nv: 6116320 nc: 12454853 enctime: 116.74
encoding rcpsp/j120.sm/j12017_7.sm nv: 1422400 nc: 2892773 enctime: 19.98
c File: j12017_7.smnaiveor1.wcnf
c timeout
c final solution cost: 207
c CPU time: 75.163248
s UNKNOWN

c File: j12017_7.smor1.wcnf
c timeout
c CPU time: 62.384067
s UNKNOWN


rcpsp/heur_output_or_constraints/Log=1/heurj120.txt
encoding rcpsp/j120.sm/j12017_8.sm nv: 6054645 nc: 12276611 enctime: 113.27
encoding rcpsp/j120.sm/j12017_8.sm nv: 1281710 nc: 2595512 enctime: 15.96
c File: j12017_8.smnaiveor1.wcnf
c timeout
c final solution cost: 593
c CPU time: 74.934661
s UNKNOWN

c File: j12017_8.smor1.wcnf
c timeout
c CPU time: 61.858418
s UNKNOWN


rcpsp/heur_output_or_constraints/Log=1/heurj120.txt
encoding rcpsp/j120.sm/j12017_9.sm nv: 5677470 nc: 11529515 enctime: 114.67
encoding rcpsp/j120.sm/j12017_9.sm nv: 1325340 nc: 2688203 enctime: 16.49
c File: j12017_9.smnaiveor1.wcnf
c timeout
c final solution cost: 172
c CPU time: 74.117731
s UNKNOWN

c File: j12017_9.smor1.wcnf
c timeout
c CPU time: 62.166922
s UNKNOWN


rcpsp/heur_output_or_constraints/Log=1/heurj120.txt
encoding rcpsp/j120.sm/j1201_7.sm nv: 638608 nc: 1532923 enctime: 35.75
encoding rcpsp/j120.sm/j1201_7.sm nv: 106116 nc: 250709 enctime: 2.46
c File: j1201_7.smnaiveor1.wcnf
c timeout
c final solution cost: 325
c CPU time: 66.819630
s UNKNOWN

c File: j1201_7.smor1.wcnf
c timeout
c final solution cost: 103
c CPU time: 60.343239
s UNKNOWN


rcpsp/heur_output_or_constraints/Log=1/heurj120.txt
encoding rcpsp/j120.sm/j12018_10.sm nv: 9594120 nc: 19356279 enctime: 188.06
encoding rcpsp/j120.sm/j12018_10.sm nv: 1396791 nc: 2814047 enctime: 18.59
c File: j12018_10.smnaiveor1.wcnf
c timeout
c final solution cost: 99
c CPU time: 79.986987
s UNKNOWN

c File: j12018_10.smor1.wcnf
c timeout
c CPU time: 61.782727
s UNKNOWN


rcpsp/heur_output_or_constraints/Log=1/heurj120.txt
encoding rcpsp/j120.sm/j12018_1.sm nv: 7694844 nc: 15625430 enctime: 144.40
encoding rcpsp/j120.sm/j12018_1.sm nv: 1609800 nc: 3264830 enctime: 23.84
c File: j12018_1.smnaiveor1.wcnf
c timeout
c final solution cost: 202
c CPU time: 78.835056
s UNKNOWN

c File: j12018_1.smor1.wcnf
c timeout
c CPU time: 62.410352
s UNKNOWN


rcpsp/heur_output_or_constraints/Log=1/heurj120.txt
encoding rcpsp/j120.sm/j12018_2.sm nv: 7958639 nc: 16120602 enctime: 156.93
encoding rcpsp/j120.sm/j12018_2.sm nv: 1409222 nc: 2850534 enctime: 21.46
c File: j12018_2.smnaiveor1.wcnf
c timeout
c final solution cost: 160
c CPU time: 78.991843
s UNKNOWN

c File: j12018_2.smor1.wcnf
c timeout
c CPU time: 62.258028
s UNKNOWN


rcpsp/heur_output_or_constraints/Log=1/heurj120.txt
encoding rcpsp/j120.sm/j12018_3.sm nv: 8932440 nc: 18024817 enctime: 171.18
encoding rcpsp/j120.sm/j12018_3.sm nv: 1421070 nc: 2863882 enctime: 21.62
c File: j12018_3.smnaiveor1.wcnf
c timeout
c final solution cost: 458
c CPU time: 79.660982
s UNKNOWN

c File: j12018_3.smor1.wcnf
c timeout
c CPU time: 62.136613
s UNKNOWN


rcpsp/heur_output_or_constraints/Log=1/heurj120.txt
encoding rcpsp/j120.sm/j12018_4.sm nv: 8444052 nc: 17048073 enctime: 165.03
encoding rcpsp/j120.sm/j12018_4.sm nv: 1359855 nc: 2741835 enctime: 20.74
c File: j12018_4.smnaiveor1.wcnf
c timeout
c final solution cost: 314
c CPU time: 79.385328
s UNKNOWN

c File: j12018_4.smor1.wcnf
c timeout
c CPU time: 62.192364
s UNKNOWN


rcpsp/heur_output_or_constraints/Log=1/heurj120.txt
encoding rcpsp/j120.sm/j12018_5.sm nv: 8293802 nc: 16777233 enctime: 137.45
encoding rcpsp/j120.sm/j12018_5.sm nv: 1520125 nc: 3071134 enctime: 19.06
c File: j12018_5.smnaiveor1.wcnf
c timeout
c final solution cost: 492
c CPU time: 77.398015
s UNKNOWN

c File: j12018_5.smor1.wcnf
c timeout
c CPU time: 62.288767
s UNKNOWN


rcpsp/heur_output_or_constraints/Log=1/heurj120.txt
encoding rcpsp/j120.sm/j12018_6.sm nv: 6200385 nc: 12579628 enctime: 132.21
encoding rcpsp/j120.sm/j12018_6.sm nv: 1384272 nc: 2805118 enctime: 22.68
c File: j12018_6.smnaiveor1.wcnf
c timeout
c final solution cost: 183
c CPU time: 75.370332
s UNKNOWN

c File: j12018_6.smor1.wcnf
c timeout
c CPU time: 62.204519
s UNKNOWN


rcpsp/heur_output_or_constraints/Log=1/heurj120.txt
encoding rcpsp/j120.sm/j12018_7.sm nv: 6881838 nc: 13933051 enctime: 141.11
encoding rcpsp/j120.sm/j12018_7.sm nv: 1320972 nc: 2670901 enctime: 18.52
c File: j12018_7.smnaiveor1.wcnf
c timeout
c final solution cost: 535
c CPU time: 77.228544
s UNKNOWN

c File: j12018_7.smor1.wcnf
c timeout
c CPU time: 62.054262
s UNKNOWN


rcpsp/heur_output_or_constraints/Log=1/heurj120.txt
encoding rcpsp/j120.sm/j12018_8.sm nv: 7588440 nc: 15333021 enctime: 160.50
encoding rcpsp/j120.sm/j12018_8.sm nv: 1312020 nc: 2647431 enctime: 20.57
c File: j12018_8.smnaiveor1.wcnf
c timeout
c final solution cost: 215
c CPU time: 78.822549
s UNKNOWN

c File: j12018_8.smor1.wcnf
c timeout
c CPU time: 62.181685
s UNKNOWN


rcpsp/heur_output_or_constraints/Log=1/heurj120.txt
encoding rcpsp/j120.sm/j12018_9.sm nv: 9752106 nc: 19668083 enctime: 194.98
encoding rcpsp/j120.sm/j12018_9.sm nv: 1417962 nc: 2855795 enctime: 20.42
c File: j12018_9.smnaiveor1.wcnf
c timeout
c final solution cost: 185
c CPU time: 83.072574
s UNKNOWN

c File: j12018_9.smor1.wcnf
c timeout
c CPU time: 62.242843
s UNKNOWN


rcpsp/heur_output_or_constraints/Log=1/heurj120.txt
encoding rcpsp/j120.sm/j1201_8.sm nv: 578124 nc: 1375967 enctime: 33.52
encoding rcpsp/j120.sm/j1201_8.sm nv: 105444 nc: 247567 enctime: 2.73
c File: j1201_8.smnaiveor1.wcnf
c timeout
c final solution cost: 105
c CPU time: 66.690139
s UNKNOWN

c File: j1201_8.smor1.wcnf
c timeout
c final solution cost: 105
c CPU time: 60.362283
s UNKNOWN


rcpsp/heur_output_or_constraints/Log=1/heurj120.txt
encoding rcpsp/j120.sm/j12019_10.sm nv: 11872368 nc: 23906161 enctime: 244.36
encoding rcpsp/j120.sm/j12019_10.sm nv: 1398756 nc: 2812191 enctime: 16.46
c File: j12019_10.smnaiveor1.wcnf
c timeout
c final solution cost: 133
c CPU time: 88.037160
s UNKNOWN

c File: j12019_10.smor1.wcnf
c timeout
c CPU time: 61.872520
s UNKNOWN


rcpsp/heur_output_or_constraints/Log=1/heurj120.txt
encoding rcpsp/j120.sm/j12019_1.sm nv: 10965642 nc: 22029177 enctime: 218.58
encoding rcpsp/j120.sm/j12019_1.sm nv: 1471428 nc: 2952403 enctime: 24.32
c File: j12019_1.smnaiveor1.wcnf
c timeout
c final solution cost: 84
c CPU time: 84.774313
s UNKNOWN

c File: j12019_1.smor1.wcnf
c timeout
c final solution cost: 76
c CPU time: 62.674163
s UNKNOWN


rcpsp/heur_output_or_constraints/Log=1/heurj120.txt
encoding rcpsp/j120.sm/j12019_2.sm nv: 11988750 nc: 24131449 enctime: 246.21
encoding rcpsp/j120.sm/j12019_2.sm nv: 1494250 nc: 3003529 enctime: 16.58
c File: j12019_2.smnaiveor1.wcnf
c timeout
c final solution cost: 268
c CPU time: 85.666669
s UNKNOWN

c File: j12019_2.smor1.wcnf
c timeout
c CPU time: 62.119323
s UNKNOWN


rcpsp/heur_output_or_constraints/Log=1/heurj120.txt
encoding rcpsp/j120.sm/j12019_3.sm nv: 9590001 nc: 19305769 enctime: 191.79
encoding rcpsp/j120.sm/j12019_3.sm nv: 1331529 nc: 2676769 enctime: 24.93
c File: j12019_3.smnaiveor1.wcnf
c timeout
c final solution cost: 112
c CPU time: 82.728002
s UNKNOWN

c File: j12019_3.smor1.wcnf
c timeout
c CPU time: 62.107278
s UNKNOWN


rcpsp/heur_output_or_constraints/Log=1/heurj120.txt
encoding rcpsp/j120.sm/j12019_4.sm nv: 8154685 nc: 16469223 enctime: 175.07
encoding rcpsp/j120.sm/j12019_4.sm nv: 1394715 nc: 2813169 enctime: 19.30
c File: j12019_4.smnaiveor1.wcnf
c timeout
c final solution cost: 120
c CPU time: 77.410249
s UNKNOWN

c File: j12019_4.smor1.wcnf
c timeout
c CPU time: 62.151899
s UNKNOWN


rcpsp/heur_output_or_constraints/Log=1/heurj120.txt
encoding rcpsp/j120.sm/j12019_5.sm nv: 8433762 nc: 17046299 enctime: 178.36
encoding rcpsp/j120.sm/j12019_5.sm nv: 1401456 nc: 2828823 enctime: 22.22
c File: j12019_5.smnaiveor1.wcnf
c timeout
c final solution cost: 239
c CPU time: 82.482293
s UNKNOWN

c File: j12019_5.smor1.wcnf
c timeout
c CPU time: 62.368593
s UNKNOWN


rcpsp/heur_output_or_constraints/Log=1/heurj120.txt
encoding rcpsp/j120.sm/j12019_6.sm nv: 10591038 nc: 21340139 enctime: 218.58
encoding rcpsp/j120.sm/j12019_6.sm nv: 1437132 nc: 2891687 enctime: 28.17
c File: j12019_6.smnaiveor1.wcnf
c timeout
c final solution cost: 120
c CPU time: 84.147645
s UNKNOWN

c File: j12019_6.smor1.wcnf
c timeout
c CPU time: 62.246159
s UNKNOWN


rcpsp/heur_output_or_constraints/Log=1/heurj120.txt
encoding rcpsp/j120.sm/j12019_7.sm nv: 10658250 nc: 21468474 enctime: 225.03
encoding rcpsp/j120.sm/j12019_7.sm nv: 1436890 nc: 2890266 enctime: 24.35
c File: j12019_7.smnaiveor1.wcnf
c timeout
c CPU time: 81.893836
s UNKNOWN

c File: j12019_7.smor1.wcnf
c timeout
c CPU time: 62.258818
s UNKNOWN


rcpsp/heur_output_or_constraints/Log=1/heurj120.txt
encoding rcpsp/j120.sm/j12019_8.sm nv: 10305400 nc: 20777457 enctime: 222.86
encoding rcpsp/j120.sm/j12019_8.sm nv: 1424570 nc: 2868125 enctime: 23.84
c File: j12019_8.smnaiveor1.wcnf
c timeout
c final solution cost: 97
c CPU time: 85.830109
s UNKNOWN

c File: j12019_8.smor1.wcnf
c timeout
c CPU time: 62.264234
s UNKNOWN


rcpsp/heur_output_or_constraints/Log=1/heurj120.txt
encoding rcpsp/j120.sm/j12019_9.sm nv: 9436025 nc: 19002730 enctime: 193.97
encoding rcpsp/j120.sm/j12019_9.sm nv: 1335425 nc: 2685610 enctime: 21.41
c File: j12019_9.smnaiveor1.wcnf
c timeout
c CPU time: 79.580573
s UNKNOWN

c File: j12019_9.smor1.wcnf
c timeout
c CPU time: 62.147641
s UNKNOWN


rcpsp/heur_output_or_constraints/Log=1/heurj120.txt
encoding rcpsp/j120.sm/j1201_9.sm nv: 629726 nc: 1528597 enctime: 42.04
encoding rcpsp/j120.sm/j1201_9.sm nv: 100498 nc: 239967 enctime: 2.74
c File: j1201_9.smnaiveor1.wcnf
c timeout
c final solution cost: 97
c CPU time: 67.405939
s UNKNOWN

c File: j1201_9.smor1.wcnf
c timeout
c final solution cost: 98
c CPU time: 60.310719
s UNKNOWN


rcpsp/heur_output_or_constraints/Log=1/heurj120.txt
encoding rcpsp/j120.sm/j12020_10.sm nv: 13285166 nc: 26703750 enctime: 259.46
encoding rcpsp/j120.sm/j12020_10.sm nv: 1480402 nc: 2971422 enctime: 25.15
c File: j12020_10.smnaiveor1.wcnf
c timeout
c CPU time: 86.677044
s UNKNOWN

c File: j12020_10.smor1.wcnf
c timeout
c CPU time: 62.328272
s UNKNOWN


rcpsp/heur_output_or_constraints/Log=1/heurj120.txt
encoding rcpsp/j120.sm/j12020_1.sm nv: 10756326 nc: 21645789 enctime: 223.96
encoding rcpsp/j120.sm/j12020_1.sm nv: 1373148 nc: 2759467 enctime: 25.79
c File: j12020_1.smnaiveor1.wcnf
c timeout
c final solution cost: 230
c CPU time: 85.767061
s UNKNOWN

c File: j12020_1.smor1.wcnf
c timeout
c CPU time: 62.194755
s UNKNOWN


rcpsp/heur_output_or_constraints/Log=1/heurj120.txt
encoding rcpsp/j120.sm/j12020_2.sm nv: 10539540 nc: 21215725 enctime: 221.27
encoding rcpsp/j120.sm/j12020_2.sm nv: 1453179 nc: 2921237 enctime: 23.19
c File: j12020_2.smnaiveor1.wcnf
c timeout
c final solution cost: 167
c CPU time: 84.828511
s UNKNOWN

c File: j12020_2.smor1.wcnf
c timeout
c CPU time: 62.042081
s UNKNOWN


rcpsp/heur_output_or_constraints/Log=1/heurj120.txt
encoding rcpsp/j120.sm/j12020_3.sm nv: 13290312 nc: 26747624 enctime: 261.66
encoding rcpsp/j120.sm/j12020_3.sm nv: 1482880 nc: 2979880 enctime: 25.12
c File: j12020_3.smnaiveor1.wcnf
c timeout
c CPU time: 85.605718
s UNKNOWN

c File: j12020_3.smor1.wcnf
c timeout
c CPU time: 62.262652
s UNKNOWN


rcpsp/heur_output_or_constraints/Log=1/heurj120.txt
encoding rcpsp/j120.sm/j12020_4.sm nv: 11445696 nc: 22994103 enctime: 225.70
encoding rcpsp/j120.sm/j12020_4.sm nv: 1410624 nc: 2830105 enctime: 17.07
c File: j12020_4.smnaiveor1.wcnf
c timeout
c final solution cost: 222
c CPU time: 84.952418
s UNKNOWN

c File: j12020_4.smor1.wcnf
c timeout
c final solution cost: 71
c CPU time: 62.639564
s UNKNOWN


rcpsp/heur_output_or_constraints/Log=1/heurj120.txt
encoding rcpsp/j120.sm/j12020_5.sm nv: 12602646 nc: 25269197 enctime: 242.74
encoding rcpsp/j120.sm/j12020_5.sm nv: 1365804 nc: 2735240 enctime: 24.22
c File: j12020_5.smnaiveor1.wcnf
c timeout
c CPU time: 82.748958
s UNKNOWN

c File: j12020_5.smor1.wcnf
c timeout
c CPU time: 62.100265
s UNKNOWN


rcpsp/heur_output_or_constraints/Log=1/heurj120.txt
encoding rcpsp/j120.sm/j12020_6.sm nv: 11676126 nc: 23408747 enctime: 208.06
encoding rcpsp/j120.sm/j12020_6.sm nv: 1193038 nc: 2388435 enctime: 18.06
c File: j12020_6.smnaiveor1.wcnf
c timeout
c final solution cost: 452
c CPU time: 82.533916
s UNKNOWN

c File: j12020_6.smor1.wcnf
c timeout
c CPU time: 61.592888
s UNKNOWN


rcpsp/heur_output_or_constraints/Log=1/heurj120.txt
encoding rcpsp/j120.sm/j12020_7.sm nv: 11280967 nc: 22632957 enctime: 182.81
encoding rcpsp/j120.sm/j12020_7.sm nv: 1299477 nc: 2603727 enctime: 16.20
c File: j12020_7.smnaiveor1.wcnf
c timeout
c final solution cost: 138
c CPU time: 80.893121
s UNKNOWN

c File: j12020_7.smor1.wcnf
c timeout
c final solution cost: 64
c CPU time: 62.099000
s UNKNOWN


rcpsp/heur_output_or_constraints/Log=1/heurj120.txt
encoding rcpsp/j120.sm/j12020_8.sm nv: 9535078 nc: 19237997 enctime: 171.76
encoding rcpsp/j120.sm/j12020_8.sm nv: 1485435 nc: 2993047 enctime: 19.08
c File: j12020_8.smnaiveor1.wcnf
c timeout
c final solution cost: 246
c CPU time: 80.393492
s UNKNOWN

c File: j12020_8.smor1.wcnf
c timeout
c CPU time: 62.078362
s UNKNOWN


rcpsp/heur_output_or_constraints/Log=1/heurj120.txt
encoding rcpsp/j120.sm/j12020_9.sm nv: 17914050 nc: 35941367 enctime: 288.14
encoding rcpsp/j120.sm/j12020_9.sm nv: 1554525 nc: 3114248 enctime: 29.26
c File: j12020_9.smnaiveor1.wcnf
c timeout
c CPU time: 91.886755
s UNKNOWN

c File: j12020_9.smor1.wcnf
c timeout
c CPU time: 62.018256
s UNKNOWN


